BAYES
325
2 2 2 2 2 2 2 2 2 2 2 2 2 2 2 2 2 2 2 2 2 2 2 2 2 2 2 2 2 2 2 2 2 2 2 2 2 2 2 2 2 2 2 2 2 2 2 2 2 2 2 2 2 2 2 2 2 2 2 2 2 2 2 2 2 2 2 2 2 2 2 2 2 2 2 2 2 2 2 2 2 2 2 2 2 2 2 2 2 2 2 2 2 2 2 2 2 2 2 2 2 2 2 2 2 2 2 2 2 2 2 2 2 2 2 2 2 2 2 2 2 2 2 2 2 2 2 2 2 2 2 2 2 2 2 2 2 2 2 2 2 2 2 2 2 2 2 2 2 2 2 2 2 2 2 2 2 2 2 2 2 2 2 2 2 2 2 2 2 2 2 2 2 2 2 2 2 2 2 2 2 2 2 2 2 2 2 2 2 2 2 2 2 2 2 2 2 2 2 2 2 2 2 2 2 2 2 2 2 2 2 2 2 2 2 2 2 2 2 2 2 2 2 2 2 2 2 2 2 2 2 2 2 2 2 2 2 2 2 2 2 2 2 2 2 2 2 2 2 2 2 2 2 2 2 2 2 2 2 2 2 2 2 2 2 2 2 2 2 2 2 2 2 2 2 2 2 2 2 2 2 2 2 2 2 2 2 2 2 2 2 2 2 2 2 2 2 2 2 2 2 2 2 2 2 2 2 2 2 2 2 2 2 2 2 2 2 2 2 2 2 2 2 2 2
325
1	0
2	0	1
2	0	2
2	1	3
3	1	2	4
2	2	5
2	3	6
3	3	4	7
3	4	5	8
2	5	9
2	6	10
3	6	7	11
3	7	8	12
3	8	9	13
2	9	14
2	10	15
3	10	11	16
3	11	12	17
3	12	13	18
3	13	14	19
2	14	20
2	15	21
3	15	16	22
3	16	17	23
3	17	18	24
3	18	19	25
3	19	20	26
2	20	27
2	21	28
3	21	22	29
3	22	23	30
3	23	24	31
3	24	25	32
3	25	26	33
3	26	27	34
2	27	35
2	28	36
3	28	29	37
3	29	30	38
3	30	31	39
3	31	32	40
3	32	33	41
3	33	34	42
3	34	35	43
2	35	44
2	36	45
3	36	37	46
3	37	38	47
3	38	39	48
3	39	40	49
3	40	41	50
3	41	42	51
3	42	43	52
3	43	44	53
2	44	54
2	45	55
3	45	46	56
3	46	47	57
3	47	48	58
3	48	49	59
3	49	50	60
3	50	51	61
3	51	52	62
3	52	53	63
3	53	54	64
2	54	65
2	55	66
3	55	56	67
3	56	57	68
3	57	58	69
3	58	59	70
3	59	60	71
3	60	61	72
3	61	62	73
3	62	63	74
3	63	64	75
3	64	65	76
2	65	77
2	66	78
3	66	67	79
3	67	68	80
3	68	69	81
3	69	70	82
3	70	71	83
3	71	72	84
3	72	73	85
3	73	74	86
3	74	75	87
3	75	76	88
3	76	77	89
2	77	90
2	78	91
3	78	79	92
3	79	80	93
3	80	81	94
3	81	82	95
3	82	83	96
3	83	84	97
3	84	85	98
3	85	86	99
3	86	87	100
3	87	88	101
3	88	89	102
3	89	90	103
2	90	104
2	91	105
3	91	92	106
3	92	93	107
3	93	94	108
3	94	95	109
3	95	96	110
3	96	97	111
3	97	98	112
3	98	99	113
3	99	100	114
3	100	101	115
3	101	102	116
3	102	103	117
3	103	104	118
2	104	119
2	105	120
3	105	106	121
3	106	107	122
3	107	108	123
3	108	109	124
3	109	110	125
3	110	111	126
3	111	112	127
3	112	113	128
3	113	114	129
3	114	115	130
3	115	116	131
3	116	117	132
3	117	118	133
3	118	119	134
2	119	135
2	120	136
3	120	121	137
3	121	122	138
3	122	123	139
3	123	124	140
3	124	125	141
3	125	126	142
3	126	127	143
3	127	128	144
3	128	129	145
3	129	130	146
3	130	131	147
3	131	132	148
3	132	133	149
3	133	134	150
3	134	135	151
2	135	152
2	136	153
3	136	137	154
3	137	138	155
3	138	139	156
3	139	140	157
3	140	141	158
3	141	142	159
3	142	143	160
3	143	144	161
3	144	145	162
3	145	146	163
3	146	147	164
3	147	148	165
3	148	149	166
3	149	150	167
3	150	151	168
3	151	152	169
2	152	170
2	153	171
3	153	154	172
3	154	155	173
3	155	156	174
3	156	157	175
3	157	158	176
3	158	159	177
3	159	160	178
3	160	161	179
3	161	162	180
3	162	163	181
3	163	164	182
3	164	165	183
3	165	166	184
3	166	167	185
3	167	168	186
3	168	169	187
3	169	170	188
2	170	189
2	171	190
3	171	172	191
3	172	173	192
3	173	174	193
3	174	175	194
3	175	176	195
3	176	177	196
3	177	178	197
3	178	179	198
3	179	180	199
3	180	181	200
3	181	182	201
3	182	183	202
3	183	184	203
3	184	185	204
3	185	186	205
3	186	187	206
3	187	188	207
3	188	189	208
2	189	209
2	190	210
3	190	191	211
3	191	192	212
3	192	193	213
3	193	194	214
3	194	195	215
3	195	196	216
3	196	197	217
3	197	198	218
3	198	199	219
3	199	200	220
3	200	201	221
3	201	202	222
3	202	203	223
3	203	204	224
3	204	205	225
3	205	206	226
3	206	207	227
3	207	208	228
3	208	209	229
2	209	230
2	210	231
3	210	211	232
3	211	212	233
3	212	213	234
3	213	214	235
3	214	215	236
3	215	216	237
3	216	217	238
3	217	218	239
3	218	219	240
3	219	220	241
3	220	221	242
3	221	222	243
3	222	223	244
3	223	224	245
3	224	225	246
3	225	226	247
3	226	227	248
3	227	228	249
3	228	229	250
3	229	230	251
2	230	252
2	231	253
3	231	232	254
3	232	233	255
3	233	234	256
3	234	235	257
3	235	236	258
3	236	237	259
3	237	238	260
3	238	239	261
3	239	240	262
3	240	241	263
3	241	242	264
3	242	243	265
3	243	244	266
3	244	245	267
3	245	246	268
3	246	247	269
3	247	248	270
3	248	249	271
3	249	250	272
3	250	251	273
3	251	252	274
2	252	275
2	253	276
3	253	254	277
3	254	255	278
3	255	256	279
3	256	257	280
3	257	258	281
3	258	259	282
3	259	260	283
3	260	261	284
3	261	262	285
3	262	263	286
3	263	264	287
3	264	265	288
3	265	266	289
3	266	267	290
3	267	268	291
3	268	269	292
3	269	270	293
3	270	271	294
3	271	272	295
3	272	273	296
3	273	274	297
3	274	275	298
2	275	299
2	276	300
3	276	277	301
3	277	278	302
3	278	279	303
3	279	280	304
3	280	281	305
3	281	282	306
3	282	283	307
3	283	284	308
3	284	285	309
3	285	286	310
3	286	287	311
3	287	288	312
3	288	289	313
3	289	290	314
3	290	291	315
3	291	292	316
3	292	293	317
3	293	294	318
3	294	295	319
3	295	296	320
3	296	297	321
3	297	298	322
3	298	299	323
2	299	324

2
	0.58002300	0.41997700

4
	0.01000000	0.99000000
	0.99000000	0.01000000

4
	0.99000000	0.01000000
	0.01000000	0.99000000

4
	0.01000000	0.99000000
	0.99000000	0.01000000

8
	0.99000000	0.01000000
	0.99000000	0.01000000
	0.01000000	0.99000000
	0.01000000	0.99000000

4
	0.34147800	0.65852200
	0.36845500	0.63154500

4
	0.54960800	0.45039200
	0.08326290	0.91673700

8
	0.99000000	0.01000000
	0.99000000	0.01000000
	0.99000000	0.01000000
	0.01000000	0.99000000

8
	0.99000000	0.01000000
	0.01000000	0.99000000
	0.99000000	0.01000000
	0.99000000	0.01000000

4
	0.01000000	0.99000000
	0.99000000	0.01000000

4
	0.99000000	0.01000000
	0.01000000	0.99000000

8
	0.99000000	0.01000000
	0.01000000	0.99000000
	0.01000000	0.99000000
	0.01000000	0.99000000

8
	0.99000000	0.01000000
	0.01000000	0.99000000
	0.99000000	0.01000000
	0.01000000	0.99000000

8
	0.01000000	0.99000000
	0.99000000	0.01000000
	0.99000000	0.01000000
	0.99000000	0.01000000

4
	0.01000000	0.99000000
	0.99000000	0.01000000

4
	0.01000000	0.99000000
	0.99000000	0.01000000

8
	0.99000000	0.01000000
	0.01000000	0.99000000
	0.01000000	0.99000000
	0.01000000	0.99000000

8
	0.66245300	0.33754700
	0.36719400	0.63280600
	0.78756800	0.21243200
	0.09847000	0.90153000

8
	0.58802800	0.41197200
	0.64110400	0.35889600
	0.56249100	0.43750900
	0.05373920	0.94626100

8
	0.99000000	0.01000000
	0.01000000	0.99000000
	0.99000000	0.01000000
	0.99000000	0.01000000

4
	0.99000000	0.01000000
	0.01000000	0.99000000

4
	0.01000000	0.99000000
	0.99000000	0.01000000

8
	0.01000000	0.99000000
	0.01000000	0.99000000
	0.99000000	0.01000000
	0.01000000	0.99000000

8
	0.99000000	0.01000000
	0.99000000	0.01000000
	0.01000000	0.99000000
	0.01000000	0.99000000

8
	0.01000000	0.99000000
	0.99000000	0.01000000
	0.01000000	0.99000000
	0.01000000	0.99000000

8
	0.78392900	0.21607100
	0.73093000	0.26907000
	0.99000000	0.01000000
	0.88091300	0.11908700

8
	0.70004300	0.29995700
	0.54329800	0.45670200
	0.49327100	0.50672900
	0.72421800	0.27578200

4
	0.97369700	0.02630310
	0.36136000	0.63864000

4
	0.01000000	0.99000000
	0.99000000	0.01000000

8
	0.99000000	0.01000000
	0.01000000	0.99000000
	0.01000000	0.99000000
	0.99000000	0.01000000

8
	0.01000000	0.99000000
	0.99000000	0.01000000
	0.01000000	0.99000000
	0.99000000	0.01000000

8
	0.99000000	0.01000000
	0.01000000	0.99000000
	0.01000000	0.99000000
	0.01000000	0.99000000

8
	0.01000000	0.99000000
	0.01000000	0.99000000
	0.01000000	0.99000000
	0.99000000	0.01000000

8
	0.84609800	0.15390200
	0.93823200	0.06176840
	0.24853800	0.75146200
	0.15393400	0.84606600

8
	0.84880600	0.15119400
	0.09470100	0.90529900
	0.01567670	0.98432300
	0.14998800	0.85001200

4
	0.99000000	0.01000000
	0.01000000	0.99000000

4
	0.99000000	0.01000000
	0.01000000	0.99000000

8
	0.01000000	0.99000000
	0.99000000	0.01000000
	0.99000000	0.01000000
	0.99000000	0.01000000

8
	0.99000000	0.01000000
	0.01000000	0.99000000
	0.99000000	0.01000000
	0.99000000	0.01000000

8
	0.99000000	0.01000000
	0.01000000	0.99000000
	0.99000000	0.01000000
	0.01000000	0.99000000

8
	0.44509000	0.55491000
	0.63231400	0.36768600
	0.66789300	0.33210700
	0.77340300	0.22659700

8
	0.73755400	0.26244600
	0.69223200	0.30776800
	0.61097900	0.38902100
	0.86579200	0.13420800

8
	0.62599700	0.37400300
	0.39802200	0.60197800
	0.26461000	0.73539000
	0.76140100	0.23859900

8
	0.01000000	0.99000000
	0.01000000	0.99000000
	0.01000000	0.99000000
	0.99000000	0.01000000

4
	0.05023570	0.94976400
	0.95516200	0.04483770

4
	0.76277300	0.23722700
	0.39197800	0.60802200

8
	0.99000000	0.01000000
	0.99000000	0.01000000
	0.99000000	0.01000000
	0.01000000	0.99000000

8
	0.01000000	0.99000000
	0.01000000	0.99000000
	0.01000000	0.99000000
	0.99000000	0.01000000

8
	0.99000000	0.01000000
	0.99000000	0.01000000
	0.01000000	0.99000000
	0.99000000	0.01000000

8
	0.61720500	0.38279500
	0.21540400	0.78459600
	0.69930900	0.30069100
	0.40392800	0.59607200

8
	0.82081600	0.17918400
	0.57399500	0.42600500
	0.19459400	0.80540600
	0.41128600	0.58871400

8
	0.99000000	0.01000000
	0.01000000	0.99000000
	0.01000000	0.99000000
	0.01000000	0.99000000

8
	0.99000000	0.01000000
	0.99000000	0.01000000
	0.01000000	0.99000000
	0.01000000	0.99000000

8
	0.01000000	0.99000000
	0.99000000	0.01000000
	0.01000000	0.99000000
	0.99000000	0.01000000

4
	0.72433800	0.27566200
	0.34630900	0.65369100

4
	0.99000000	0.01000000
	0.01000000	0.99000000

8
	0.58749700	0.41250300
	0.04784550	0.95215400
	0.05215530	0.94784500
	0.77102600	0.22897400

8
	0.01000000	0.99000000
	0.99000000	0.01000000
	0.01000000	0.99000000
	0.01000000	0.99000000

8
	0.99000000	0.01000000
	0.01000000	0.99000000
	0.01000000	0.99000000
	0.99000000	0.01000000

8
	0.99000000	0.01000000
	0.01000000	0.99000000
	0.99000000	0.01000000
	0.01000000	0.99000000

8
	0.01000000	0.99000000
	0.99000000	0.01000000
	0.99000000	0.01000000
	0.01000000	0.99000000

8
	0.98901900	0.01098120
	0.63386100	0.36613900
	0.72551900	0.27448100
	0.46237500	0.53762500

8
	0.99000000	0.01000000
	0.01000000	0.99000000
	0.99000000	0.01000000
	0.99000000	0.01000000

8
	0.01000000	0.99000000
	0.01000000	0.99000000
	0.01000000	0.99000000
	0.99000000	0.01000000

8
	0.99000000	0.01000000
	0.01000000	0.99000000
	0.01000000	0.99000000
	0.01000000	0.99000000

4
	0.01000000	0.99000000
	0.99000000	0.01000000

4
	0.01000000	0.99000000
	0.99000000	0.01000000

8
	0.99000000	0.01000000
	0.99000000	0.01000000
	0.01000000	0.99000000
	0.99000000	0.01000000

8
	0.99000000	0.01000000
	0.99000000	0.01000000
	0.99000000	0.01000000
	0.01000000	0.99000000

8
	0.99000000	0.01000000
	0.99000000	0.01000000
	0.99000000	0.01000000
	0.01000000	0.99000000

8
	0.99000000	0.01000000
	0.01000000	0.99000000
	0.01000000	0.99000000
	0.99000000	0.01000000

8
	0.99000000	0.01000000
	0.99000000	0.01000000
	0.99000000	0.01000000
	0.01000000	0.99000000

8
	0.01000000	0.99000000
	0.99000000	0.01000000
	0.99000000	0.01000000
	0.99000000	0.01000000

8
	0.20948400	0.79051600
	0.32157200	0.67842800
	0.34032000	0.65968000
	0.09458060	0.90541900

8
	0.73498600	0.26501400
	0.89024600	0.10975400
	0.28254200	0.71745800
	0.52255400	0.47744600

8
	0.99000000	0.01000000
	0.99000000	0.01000000
	0.99000000	0.01000000
	0.01000000	0.99000000

8
	0.75371700	0.24628300
	0.13016700	0.86983300
	0.27459700	0.72540300
	0.38474700	0.61525300

4
	0.99000000	0.01000000
	0.01000000	0.99000000

4
	0.01000000	0.99000000
	0.99000000	0.01000000

8
	0.63018000	0.36982000
	0.69795000	0.30205000
	0.93735700	0.06264340
	0.65031100	0.34968900

8
	0.01000000	0.99000000
	0.01000000	0.99000000
	0.99000000	0.01000000
	0.01000000	0.99000000

8
	0.01000000	0.99000000
	0.01000000	0.99000000
	0.99000000	0.01000000
	0.01000000	0.99000000

8
	0.01000000	0.99000000
	0.01000000	0.99000000
	0.01000000	0.99000000
	0.99000000	0.01000000

8
	0.99000000	0.01000000
	0.99000000	0.01000000
	0.99000000	0.01000000
	0.01000000	0.99000000

8
	0.31602300	0.68397700
	0.10386800	0.89613200
	0.06898480	0.93101500
	0.82524500	0.17475500

8
	0.01000000	0.99000000
	0.99000000	0.01000000
	0.01000000	0.99000000
	0.99000000	0.01000000

8
	0.99000000	0.01000000
	0.99000000	0.01000000
	0.01000000	0.99000000
	0.99000000	0.01000000

8
	0.63991700	0.36008300
	0.61088700	0.38911300
	0.93129400	0.06870610
	0.93397900	0.06602060

8
	0.01000000	0.99000000
	0.99000000	0.01000000
	0.01000000	0.99000000
	0.01000000	0.99000000

8
	0.99000000	0.01000000
	0.01000000	0.99000000
	0.99000000	0.01000000
	0.99000000	0.01000000

4
	0.01000000	0.99000000
	0.99000000	0.01000000

4
	0.99000000	0.01000000
	0.01000000	0.99000000

8
	0.94409800	0.05590240
	0.47006400	0.52993600
	0.37027100	0.62972900
	0.35742100	0.64257900

8
	0.99000000	0.01000000
	0.01000000	0.99000000
	0.99000000	0.01000000
	0.01000000	0.99000000

8
	0.01000000	0.99000000
	0.99000000	0.01000000
	0.99000000	0.01000000
	0.01000000	0.99000000

8
	0.01000000	0.99000000
	0.99000000	0.01000000
	0.01000000	0.99000000
	0.01000000	0.99000000

8
	0.99000000	0.01000000
	0.01000000	0.99000000
	0.01000000	0.99000000
	0.99000000	0.01000000

8
	0.01000000	0.99000000
	0.01000000	0.99000000
	0.99000000	0.01000000
	0.01000000	0.99000000

8
	0.01000000	0.99000000
	0.99000000	0.01000000
	0.01000000	0.99000000
	0.01000000	0.99000000

8
	0.29405300	0.70594700
	0.24175100	0.75824900
	0.28217200	0.71782800
	0.11058700	0.88941300

8
	0.99000000	0.01000000
	0.01000000	0.99000000
	0.01000000	0.99000000
	0.01000000	0.99000000

8
	0.99000000	0.01000000
	0.01000000	0.99000000
	0.01000000	0.99000000
	0.01000000	0.99000000

8
	0.01000000	0.99000000
	0.01000000	0.99000000
	0.01000000	0.99000000
	0.99000000	0.01000000

8
	0.99000000	0.01000000
	0.01000000	0.99000000
	0.01000000	0.99000000
	0.99000000	0.01000000

4
	0.99000000	0.01000000
	0.01000000	0.99000000

4
	0.01000000	0.99000000
	0.99000000	0.01000000

8
	0.06120050	0.93879900
	0.15226000	0.84774000
	0.51815300	0.48184700
	0.82531400	0.17468600

8
	0.99000000	0.01000000
	0.01000000	0.99000000
	0.01000000	0.99000000
	0.01000000	0.99000000

8
	0.65393200	0.34606800
	0.84595800	0.15404200
	0.94238800	0.05761200
	0.87595700	0.12404300

8
	0.99000000	0.01000000
	0.01000000	0.99000000
	0.99000000	0.01000000
	0.01000000	0.99000000

8
	0.58660800	0.41339200
	0.39681900	0.60318100
	0.78239000	0.21761000
	0.59504500	0.40495500

8
	0.01000000	0.99000000
	0.99000000	0.01000000
	0.99000000	0.01000000
	0.01000000	0.99000000

8
	0.99000000	0.01000000
	0.99000000	0.01000000
	0.01000000	0.99000000
	0.99000000	0.01000000

8
	0.99000000	0.01000000
	0.99000000	0.01000000
	0.99000000	0.01000000
	0.01000000	0.99000000

8
	0.01000000	0.99000000
	0.99000000	0.01000000
	0.99000000	0.01000000
	0.99000000	0.01000000

8
	0.01000000	0.99000000
	0.99000000	0.01000000
	0.99000000	0.01000000
	0.01000000	0.99000000

8
	0.99000000	0.01000000
	0.01000000	0.99000000
	0.99000000	0.01000000
	0.99000000	0.01000000

8
	0.99000000	0.01000000
	0.99000000	0.01000000
	0.01000000	0.99000000
	0.99000000	0.01000000

8
	0.99000000	0.01000000
	0.99000000	0.01000000
	0.99000000	0.01000000
	0.01000000	0.99000000

4
	0.77413200	0.22586800
	0.83212700	0.16787300

4
	0.64646800	0.35353200
	0.42757600	0.57242400

8
	0.99000000	0.01000000
	0.01000000	0.99000000
	0.99000000	0.01000000
	0.99000000	0.01000000

8
	0.83875700	0.16124300
	0.66861100	0.33138900
	0.40570100	0.59429900
	0.73310900	0.26689100

8
	0.99000000	0.01000000
	0.99000000	0.01000000
	0.01000000	0.99000000
	0.01000000	0.99000000

8
	0.99000000	0.01000000
	0.99000000	0.01000000
	0.01000000	0.99000000
	0.01000000	0.99000000

8
	0.99000000	0.01000000
	0.99000000	0.01000000
	0.01000000	0.99000000
	0.99000000	0.01000000

8
	0.01000000	0.99000000
	0.99000000	0.01000000
	0.01000000	0.99000000
	0.99000000	0.01000000

8
	0.45357000	0.54643000
	0.33641700	0.66358300
	0.10869900	0.89130100
	0.38099600	0.61900400

8
	0.77572300	0.22427700
	0.02384990	0.97615000
	0.37388400	0.62611600
	0.54321500	0.45678500

8
	0.99000000	0.01000000
	0.01000000	0.99000000
	0.01000000	0.99000000
	0.01000000	0.99000000

8
	0.01000000	0.99000000
	0.99000000	0.01000000
	0.99000000	0.01000000
	0.99000000	0.01000000

8
	0.01000000	0.99000000
	0.99000000	0.01000000
	0.99000000	0.01000000
	0.99000000	0.01000000

8
	0.01000000	0.99000000
	0.99000000	0.01000000
	0.01000000	0.99000000
	0.01000000	0.99000000

8
	0.99000000	0.01000000
	0.01000000	0.99000000
	0.99000000	0.01000000
	0.99000000	0.01000000

8
	0.99000000	0.01000000
	0.99000000	0.01000000
	0.99000000	0.01000000
	0.01000000	0.99000000

4
	0.99000000	0.01000000
	0.01000000	0.99000000

4
	0.13026400	0.86973600
	0.71347900	0.28652100

8
	0.01000000	0.99000000
	0.99000000	0.01000000
	0.99000000	0.01000000
	0.01000000	0.99000000

8
	0.99000000	0.01000000
	0.99000000	0.01000000
	0.99000000	0.01000000
	0.01000000	0.99000000

8
	0.99000000	0.01000000
	0.99000000	0.01000000
	0.01000000	0.99000000
	0.99000000	0.01000000

8
	0.01000000	0.99000000
	0.99000000	0.01000000
	0.01000000	0.99000000
	0.01000000	0.99000000

8
	0.99000000	0.01000000
	0.99000000	0.01000000
	0.01000000	0.99000000
	0.01000000	0.99000000

8
	0.01000000	0.99000000
	0.01000000	0.99000000
	0.99000000	0.01000000
	0.99000000	0.01000000

8
	0.01000000	0.99000000
	0.99000000	0.01000000
	0.01000000	0.99000000
	0.01000000	0.99000000

8
	0.42398400	0.57601600
	0.15980500	0.84019500
	0.14380600	0.85619400
	0.18223900	0.81776100

8
	0.01000000	0.99000000
	0.01000000	0.99000000
	0.01000000	0.99000000
	0.99000000	0.01000000

8
	0.99000000	0.01000000
	0.99000000	0.01000000
	0.01000000	0.99000000
	0.01000000	0.99000000

8
	0.01000000	0.99000000
	0.99000000	0.01000000
	0.01000000	0.99000000
	0.99000000	0.01000000

8
	0.01000000	0.99000000
	0.99000000	0.01000000
	0.99000000	0.01000000
	0.01000000	0.99000000

8
	0.99000000	0.01000000
	0.99000000	0.01000000
	0.01000000	0.99000000
	0.99000000	0.01000000

8
	0.99000000	0.01000000
	0.99000000	0.01000000
	0.99000000	0.01000000
	0.01000000	0.99000000

8
	0.50798100	0.49201900
	0.42280600	0.57719400
	0.73708100	0.26291900
	0.08131280	0.91868700

4
	0.99000000	0.01000000
	0.01000000	0.99000000

4
	0.65814800	0.34185200
	0.60793600	0.39206400

8
	0.09525160	0.90474800
	0.04283090	0.95716900
	0.56097600	0.43902400
	0.80806900	0.19193100

8
	0.02648760	0.97351200
	0.31716400	0.68283600
	0.78202700	0.21797300
	0.81099800	0.18900200

8
	0.01000000	0.99000000
	0.99000000	0.01000000
	0.01000000	0.99000000
	0.99000000	0.01000000

8
	0.01000000	0.99000000
	0.01000000	0.99000000
	0.99000000	0.01000000
	0.01000000	0.99000000

8
	0.44186000	0.55814000
	0.14925800	0.85074200
	0.71235700	0.28764300
	0.08803150	0.91196900

8
	0.99000000	0.01000000
	0.99000000	0.01000000
	0.01000000	0.99000000
	0.01000000	0.99000000

8
	0.01000000	0.99000000
	0.01000000	0.99000000
	0.99000000	0.01000000
	0.01000000	0.99000000

8
	0.99000000	0.01000000
	0.99000000	0.01000000
	0.01000000	0.99000000
	0.99000000	0.01000000

8
	0.99000000	0.01000000
	0.01000000	0.99000000
	0.99000000	0.01000000
	0.99000000	0.01000000

8
	0.01000000	0.99000000
	0.99000000	0.01000000
	0.99000000	0.01000000
	0.01000000	0.99000000

8
	0.95239300	0.04760680
	0.04953300	0.95046700
	0.92220400	0.07779610
	0.21846700	0.78153300

8
	0.99000000	0.01000000
	0.99000000	0.01000000
	0.01000000	0.99000000
	0.01000000	0.99000000

8
	0.01000000	0.99000000
	0.01000000	0.99000000
	0.99000000	0.01000000
	0.01000000	0.99000000

8
	0.99000000	0.01000000
	0.99000000	0.01000000
	0.01000000	0.99000000
	0.01000000	0.99000000

8
	0.01000000	0.99000000
	0.01000000	0.99000000
	0.01000000	0.99000000
	0.99000000	0.01000000

8
	0.01000000	0.99000000
	0.99000000	0.01000000
	0.99000000	0.01000000
	0.99000000	0.01000000

4
	0.01000000	0.99000000
	0.99000000	0.01000000

4
	0.65510400	0.34489600
	0.87948100	0.12051900

8
	0.01000000	0.99000000
	0.01000000	0.99000000
	0.99000000	0.01000000
	0.01000000	0.99000000

8
	0.24863200	0.75136800
	0.86757300	0.13242700
	0.64675800	0.35324200
	0.69214700	0.30785300

8
	0.01000000	0.99000000
	0.99000000	0.01000000
	0.99000000	0.01000000
	0.99000000	0.01000000

8
	0.01000000	0.99000000
	0.99000000	0.01000000
	0.01000000	0.99000000
	0.99000000	0.01000000

8
	0.01000000	0.99000000
	0.99000000	0.01000000
	0.99000000	0.01000000
	0.99000000	0.01000000

8
	0.01000000	0.99000000
	0.99000000	0.01000000
	0.99000000	0.01000000
	0.99000000	0.01000000

8
	0.85353200	0.14646800
	0.71795400	0.28204600
	0.48450700	0.51549300
	0.79088900	0.20911100

8
	0.99000000	0.01000000
	0.01000000	0.99000000
	0.99000000	0.01000000
	0.99000000	0.01000000

8
	0.01000000	0.99000000
	0.99000000	0.01000000
	0.99000000	0.01000000
	0.99000000	0.01000000

8
	0.01000000	0.99000000
	0.99000000	0.01000000
	0.99000000	0.01000000
	0.99000000	0.01000000

8
	0.01000000	0.99000000
	0.99000000	0.01000000
	0.01000000	0.99000000
	0.99000000	0.01000000

8
	0.99000000	0.01000000
	0.99000000	0.01000000
	0.01000000	0.99000000
	0.99000000	0.01000000

8
	0.01000000	0.99000000
	0.99000000	0.01000000
	0.99000000	0.01000000
	0.99000000	0.01000000

8
	0.01000000	0.99000000
	0.99000000	0.01000000
	0.01000000	0.99000000
	0.01000000	0.99000000

8
	0.01000000	0.99000000
	0.01000000	0.99000000
	0.01000000	0.99000000
	0.99000000	0.01000000

8
	0.01000000	0.99000000
	0.01000000	0.99000000
	0.99000000	0.01000000
	0.99000000	0.01000000

8
	0.01000000	0.99000000
	0.01000000	0.99000000
	0.01000000	0.99000000
	0.99000000	0.01000000

4
	0.01000000	0.99000000
	0.99000000	0.01000000

4
	0.99000000	0.01000000
	0.01000000	0.99000000

8
	0.99000000	0.01000000
	0.99000000	0.01000000
	0.01000000	0.99000000
	0.01000000	0.99000000

8
	0.01000000	0.99000000
	0.01000000	0.99000000
	0.99000000	0.01000000
	0.01000000	0.99000000

8
	0.99000000	0.01000000
	0.01000000	0.99000000
	0.01000000	0.99000000
	0.01000000	0.99000000

8
	0.01000000	0.99000000
	0.99000000	0.01000000
	0.01000000	0.99000000
	0.99000000	0.01000000

8
	0.97117600	0.02882360
	0.93292200	0.06707850
	0.53526500	0.46473500
	0.08339210	0.91660800

8
	0.70173000	0.29827000
	0.94399900	0.05600100
	0.22943300	0.77056700
	0.38673200	0.61326800

8
	0.99000000	0.01000000
	0.99000000	0.01000000
	0.99000000	0.01000000
	0.01000000	0.99000000

8
	0.01000000	0.99000000
	0.01000000	0.99000000
	0.01000000	0.99000000
	0.99000000	0.01000000

8
	0.99000000	0.01000000
	0.01000000	0.99000000
	0.01000000	0.99000000
	0.99000000	0.01000000

8
	0.99000000	0.01000000
	0.99000000	0.01000000
	0.01000000	0.99000000
	0.99000000	0.01000000

8
	0.01000000	0.99000000
	0.99000000	0.01000000
	0.01000000	0.99000000
	0.01000000	0.99000000

8
	0.99000000	0.01000000
	0.99000000	0.01000000
	0.01000000	0.99000000
	0.99000000	0.01000000

8
	0.01000000	0.99000000
	0.99000000	0.01000000
	0.99000000	0.01000000
	0.01000000	0.99000000

8
	0.99000000	0.01000000
	0.01000000	0.99000000
	0.01000000	0.99000000
	0.01000000	0.99000000

8
	0.34947200	0.65052800
	0.31110500	0.68889500
	0.57466300	0.42533700
	0.83171800	0.16828200

8
	0.99000000	0.01000000
	0.99000000	0.01000000
	0.01000000	0.99000000
	0.99000000	0.01000000

8
	0.01000000	0.99000000
	0.99000000	0.01000000
	0.01000000	0.99000000
	0.99000000	0.01000000

8
	0.99000000	0.01000000
	0.93625100	0.06374870
	0.67305300	0.32694700
	0.75794400	0.24205600

4
	0.01000000	0.99000000
	0.99000000	0.01000000

4
	0.99000000	0.01000000
	0.01000000	0.99000000

8
	0.99000000	0.01000000
	0.01000000	0.99000000
	0.99000000	0.01000000
	0.01000000	0.99000000

8
	0.99000000	0.01000000
	0.01000000	0.99000000
	0.01000000	0.99000000
	0.99000000	0.01000000

8
	0.99000000	0.01000000
	0.01000000	0.99000000
	0.01000000	0.99000000
	0.99000000	0.01000000

8
	0.99000000	0.01000000
	0.01000000	0.99000000
	0.99000000	0.01000000
	0.01000000	0.99000000

8
	0.01000000	0.99000000
	0.01000000	0.99000000
	0.99000000	0.01000000
	0.01000000	0.99000000

8
	0.99000000	0.01000000
	0.67798200	0.32201800
	0.53952400	0.46047600
	0.37448500	0.62551500

8
	0.01000000	0.99000000
	0.99000000	0.01000000
	0.01000000	0.99000000
	0.01000000	0.99000000

8
	0.01000000	0.99000000
	0.01000000	0.99000000
	0.99000000	0.01000000
	0.01000000	0.99000000

8
	0.99000000	0.01000000
	0.99000000	0.01000000
	0.99000000	0.01000000
	0.01000000	0.99000000

8
	0.01000000	0.99000000
	0.01000000	0.99000000
	0.99000000	0.01000000
	0.01000000	0.99000000

8
	0.99000000	0.01000000
	0.99000000	0.01000000
	0.01000000	0.99000000
	0.99000000	0.01000000

8
	0.99000000	0.01000000
	0.01000000	0.99000000
	0.01000000	0.99000000
	0.01000000	0.99000000

8
	0.99000000	0.01000000
	0.99000000	0.01000000
	0.99000000	0.01000000
	0.01000000	0.99000000

8
	0.01000000	0.99000000
	0.99000000	0.01000000
	0.99000000	0.01000000
	0.99000000	0.01000000

8
	0.89797000	0.10203000
	0.56381600	0.43618400
	0.13474800	0.86525200
	0.62304500	0.37695500

8
	0.01000000	0.99000000
	0.01000000	0.99000000
	0.01000000	0.99000000
	0.99000000	0.01000000

8
	0.99000000	0.01000000
	0.99000000	0.01000000
	0.01000000	0.99000000
	0.99000000	0.01000000

8
	0.99000000	0.01000000
	0.01000000	0.99000000
	0.01000000	0.99000000
	0.01000000	0.99000000

8
	0.01000000	0.99000000
	0.99000000	0.01000000
	0.99000000	0.01000000
	0.99000000	0.01000000

4
	0.01000000	0.99000000
	0.99000000	0.01000000

4
	0.76705200	0.23294800
	0.93064500	0.06935470

8
	0.01000000	0.99000000
	0.99000000	0.01000000
	0.99000000	0.01000000
	0.01000000	0.99000000

8
	0.99000000	0.01000000
	0.01000000	0.99000000
	0.99000000	0.01000000
	0.99000000	0.01000000

8
	0.76492600	0.23507400
	0.07666430	0.92333600
	0.01164430	0.98835600
	0.33780800	0.66219200

8
	0.01000000	0.99000000
	0.99000000	0.01000000
	0.01000000	0.99000000
	0.99000000	0.01000000

8
	0.01000000	0.99000000
	0.99000000	0.01000000
	0.01000000	0.99000000
	0.01000000	0.99000000

8
	0.01000000	0.99000000
	0.99000000	0.01000000
	0.99000000	0.01000000
	0.99000000	0.01000000

8
	0.39688400	0.60311600
	0.46948700	0.53051300
	0.30040900	0.69959100
	0.22698200	0.77301800

8
	0.99000000	0.01000000
	0.01000000	0.99000000
	0.99000000	0.01000000
	0.01000000	0.99000000

8
	0.99000000	0.01000000
	0.99000000	0.01000000
	0.01000000	0.99000000
	0.99000000	0.01000000

8
	0.99000000	0.01000000
	0.01000000	0.99000000
	0.01000000	0.99000000
	0.99000000	0.01000000

8
	0.01000000	0.99000000
	0.99000000	0.01000000
	0.01000000	0.99000000
	0.99000000	0.01000000

8
	0.22123300	0.77876700
	0.22932200	0.77067800
	0.56820000	0.43180000
	0.62197300	0.37802700

8
	0.01000000	0.99000000
	0.01000000	0.99000000
	0.99000000	0.01000000
	0.01000000	0.99000000

8
	0.78525200	0.21474800
	0.30031000	0.69969000
	0.35288600	0.64711400
	0.32846700	0.67153300

8
	0.01000000	0.99000000
	0.01000000	0.99000000
	0.99000000	0.01000000
	0.01000000	0.99000000

8
	0.04536310	0.95463700
	0.56352500	0.43647500
	0.91551600	0.08448450
	0.35990600	0.64009400

8
	0.01000000	0.99000000
	0.99000000	0.01000000
	0.01000000	0.99000000
	0.01000000	0.99000000

8
	0.99000000	0.01000000
	0.99000000	0.01000000
	0.01000000	0.99000000
	0.99000000	0.01000000

8
	0.99000000	0.01000000
	0.01000000	0.99000000
	0.01000000	0.99000000
	0.01000000	0.99000000

8
	0.99000000	0.01000000
	0.01000000	0.99000000
	0.01000000	0.99000000
	0.01000000	0.99000000

4
	0.99000000	0.01000000
	0.01000000	0.99000000

4
	0.44491400	0.55508600
	0.83205400	0.16794600

8
	0.01000000	0.99000000
	0.99000000	0.01000000
	0.01000000	0.99000000
	0.01000000	0.99000000

8
	0.99000000	0.01000000
	0.99000000	0.01000000
	0.01000000	0.99000000
	0.99000000	0.01000000

8
	0.99000000	0.01000000
	0.01000000	0.99000000
	0.01000000	0.99000000
	0.01000000	0.99000000

8
	0.28550100	0.71449900
	0.70278200	0.29721800
	0.72894300	0.27105700
	0.87543300	0.12456700

8
	0.01000000	0.99000000
	0.99000000	0.01000000
	0.99000000	0.01000000
	0.99000000	0.01000000

8
	0.01000000	0.99000000
	0.99000000	0.01000000
	0.01000000	0.99000000
	0.99000000	0.01000000

8
	0.01000000	0.99000000
	0.99000000	0.01000000
	0.01000000	0.99000000
	0.99000000	0.01000000

8
	0.01000000	0.99000000
	0.01000000	0.99000000
	0.01000000	0.99000000
	0.99000000	0.01000000

8
	0.79927500	0.20072500
	0.27618100	0.72381900
	0.81966900	0.18033100
	0.63397400	0.36602600

8
	0.01000000	0.99000000
	0.99000000	0.01000000
	0.99000000	0.01000000
	0.01000000	0.99000000

8
	0.99000000	0.01000000
	0.01000000	0.99000000
	0.01000000	0.99000000
	0.99000000	0.01000000

8
	0.01000000	0.99000000
	0.99000000	0.01000000
	0.01000000	0.99000000
	0.01000000	0.99000000

8
	0.74206000	0.25794000
	0.98296300	0.01703750
	0.21324000	0.78676000
	0.96376600	0.03623360

8
	0.01000000	0.99000000
	0.99000000	0.01000000
	0.99000000	0.01000000
	0.99000000	0.01000000

8
	0.99000000	0.01000000
	0.99000000	0.01000000
	0.01000000	0.99000000
	0.99000000	0.01000000

8
	0.99000000	0.01000000
	0.01000000	0.99000000
	0.99000000	0.01000000
	0.99000000	0.01000000

8
	0.01000000	0.99000000
	0.01000000	0.99000000
	0.01000000	0.99000000
	0.99000000	0.01000000

8
	0.01000000	0.99000000
	0.99000000	0.01000000
	0.01000000	0.99000000
	0.99000000	0.01000000

8
	0.99000000	0.01000000
	0.99000000	0.01000000
	0.01000000	0.99000000
	0.99000000	0.01000000

8
	0.99000000	0.01000000
	0.01000000	0.99000000
	0.01000000	0.99000000
	0.01000000	0.99000000

8
	0.99000000	0.01000000
	0.01000000	0.99000000
	0.01000000	0.99000000
	0.99000000	0.01000000

4
	0.99000000	0.01000000
	0.01000000	0.99000000

4
	0.99000000	0.01000000
	0.01000000	0.99000000

8
	0.99000000	0.01000000
	0.99000000	0.01000000
	0.01000000	0.99000000
	0.01000000	0.99000000

8
	0.01000000	0.99000000
	0.01000000	0.99000000
	0.99000000	0.01000000
	0.99000000	0.01000000

8
	0.76950300	0.23049700
	0.46610700	0.53389300
	0.92493100	0.07506880
	0.67848600	0.32151400

8
	0.99000000	0.01000000
	0.01000000	0.99000000
	0.99000000	0.01000000
	0.99000000	0.01000000

8
	0.99000000	0.01000000
	0.01000000	0.99000000
	0.01000000	0.99000000
	0.01000000	0.99000000

8
	0.99000000	0.01000000
	0.01000000	0.99000000
	0.01000000	0.99000000
	0.99000000	0.01000000

8
	0.01000000	0.99000000
	0.01000000	0.99000000
	0.99000000	0.01000000
	0.99000000	0.01000000

8
	0.01000000	0.99000000
	0.99000000	0.01000000
	0.99000000	0.01000000
	0.01000000	0.99000000

8
	0.99000000	0.01000000
	0.99000000	0.01000000
	0.01000000	0.99000000
	0.99000000	0.01000000

8
	0.01000000	0.99000000
	0.99000000	0.01000000
	0.01000000	0.99000000
	0.99000000	0.01000000

8
	0.01000000	0.99000000
	0.01000000	0.99000000
	0.01000000	0.99000000
	0.99000000	0.01000000

8
	0.79851000	0.20149000
	0.54789600	0.45210400
	0.05947730	0.94052300
	0.88628300	0.11371700

8
	0.99000000	0.01000000
	0.01000000	0.99000000
	0.99000000	0.01000000
	0.01000000	0.99000000

8
	0.99000000	0.01000000
	0.99000000	0.01000000
	0.01000000	0.99000000
	0.01000000	0.99000000

8
	0.12672400	0.87327600
	0.05646840	0.94353200
	0.53225200	0.46774800
	0.23178800	0.76821200

8
	0.85630100	0.14369900
	0.28945300	0.71054700
	0.92065900	0.07934060
	0.08130250	0.91869700

8
	0.01000000	0.99000000
	0.99000000	0.01000000
	0.01000000	0.99000000
	0.99000000	0.01000000

8
	0.99000000	0.01000000
	0.99000000	0.01000000
	0.01000000	0.99000000
	0.01000000	0.99000000

8
	0.01646920	0.98353100
	0.43914900	0.56085100
	0.93563100	0.06436910
	0.14088400	0.85911600

8
	0.01000000	0.99000000
	0.99000000	0.01000000
	0.99000000	0.01000000
	0.99000000	0.01000000

8
	0.43601700	0.56398300
	0.99000000	0.01000000
	0.30076500	0.69923500
	0.84410700	0.15589300

8
	0.01000000	0.99000000
	0.99000000	0.01000000
	0.99000000	0.01000000
	0.99000000	0.01000000

4
	0.99000000	0.01000000
	0.01000000	0.99000000

4
	0.08180670	0.91819300
	0.19090400	0.80909600

8
	0.99000000	0.01000000
	0.01000000	0.99000000
	0.01000000	0.99000000
	0.01000000	0.99000000

8
	0.01000000	0.99000000
	0.91327900	0.08672090
	0.05392270	0.94607700
	0.71487600	0.28512400

8
	0.99000000	0.01000000
	0.01000000	0.99000000
	0.01000000	0.99000000
	0.99000000	0.01000000

8
	0.99000000	0.01000000
	0.01000000	0.99000000
	0.01000000	0.99000000
	0.01000000	0.99000000

8
	0.99000000	0.01000000
	0.99000000	0.01000000
	0.01000000	0.99000000
	0.01000000	0.99000000

8
	0.94786400	0.05213640
	0.71950100	0.28049900
	0.85304500	0.14695500
	0.60296700	0.39703300

8
	0.01000000	0.99000000
	0.99000000	0.01000000
	0.99000000	0.01000000
	0.01000000	0.99000000

8
	0.99000000	0.01000000
	0.01000000	0.99000000
	0.01000000	0.99000000
	0.01000000	0.99000000

8
	0.08191240	0.91808800
	0.92314400	0.07685580
	0.06987560	0.93012400
	0.21896800	0.78103200

8
	0.99000000	0.01000000
	0.01000000	0.99000000
	0.99000000	0.01000000
	0.99000000	0.01000000

8
	0.01000000	0.99000000
	0.01000000	0.99000000
	0.01000000	0.99000000
	0.99000000	0.01000000

8
	0.88246500	0.11753500
	0.11264500	0.88735500
	0.38654900	0.61345100
	0.75318200	0.24681800

8
	0.99000000	0.01000000
	0.99000000	0.01000000
	0.99000000	0.01000000
	0.01000000	0.99000000

8
	0.87385800	0.12614200
	0.13246300	0.86753700
	0.97613400	0.02386560
	0.31532400	0.68467600

8
	0.99000000	0.01000000
	0.01000000	0.99000000
	0.99000000	0.01000000
	0.01000000	0.99000000

8
	0.99000000	0.01000000
	0.01000000	0.99000000
	0.01000000	0.99000000
	0.99000000	0.01000000

8
	0.01000000	0.99000000
	0.99000000	0.01000000
	0.99000000	0.01000000
	0.99000000	0.01000000

8
	0.01000000	0.99000000
	0.99000000	0.01000000
	0.99000000	0.01000000
	0.99000000	0.01000000

8
	0.99000000	0.01000000
	0.99000000	0.01000000
	0.01000000	0.99000000
	0.01000000	0.99000000

8
	0.99000000	0.01000000
	0.01000000	0.99000000
	0.01000000	0.99000000
	0.99000000	0.01000000

8
	0.01000000	0.99000000
	0.99000000	0.01000000
	0.01000000	0.99000000
	0.99000000	0.01000000

8
	0.90656900	0.09343080
	0.35069400	0.64930600
	0.62791200	0.37208800
	0.36728500	0.63271500

8
	0.01000000	0.99000000
	0.99000000	0.01000000
	0.99000000	0.01000000
	0.01000000	0.99000000

4
	0.01000000	0.99000000
	0.99000000	0.01000000
